(declare-fun var0 () String)
(assert (str.in.re var0 (re.++ (re.* (re.+ (str.to.re "mmm"))) (re.++ (re.+ (re.union (str.to.re "k") (str.to.re "l"))) (re.++ (re.* (re.* (str.to.re "jjj"))) (re.++ (re.* (re.* (str.to.re "i"))) (re.++ (re.+ (re.union (str.to.re "gg") (str.to.re "hh"))) (re.++ (re.+ (re.* (str.to.re "fff"))) (re.++ (re.* (re.union (str.to.re "ddd") (str.to.re "eee"))) (re.++ (re.+ (re.+ (str.to.re "ccc"))) (re.++ (re.+ (re.union (str.to.re "aa") (str.to.re "b"))) (re.++ (re.union (re.* (str.to.re "8")) (re.+ (str.to.re "9"))) (re.++ (re.union (re.* (str.to.re "55")) (re.union (str.to.re "66") (str.to.re "7"))) (re.++ (re.* (re.* (str.to.re "444"))) (re.++ (re.* (re.+ (str.to.re "33"))) (re.++ (re.* (re.union (str.to.re "111") (str.to.re "222"))) (re.+ (re.+ (str.to.re "000")))))))))))))))))))
(check-sat)